40
    21    72    15    25    58    39    69    20    96    47    14    86    59    57    25    48    99    81    57    32    98    87    42    69    65    93    92    92    37    72    95    37    79    49    17    44    85     2     4    57
     4    10     5    10     6    10     5     8    10    10     9     2     9     7     7     1     5     7     9     1     8    10     2     4     6     1     4     9     5     5     7     9     1     8     8     6     8     6     4     3
  1806  1799  1583  1636  1853  2134   780  1173   490   552   782  1959  1216  2203  1886  1435  1192  1493   539   905  1803  1248  2125  1012  2231   586   696  1683  1072  1571   695  1184   641   663  2045  1416  1443   728  2213  1614
